100
125
100
99
98
96
96
95
94
94
94
93
93
93
92
92
90
90
90
89
89
89
88
87
86
86
86
85
84
83
83
83
82
82
81
80
80
79
77
77
77
76
75
75
74
74
74
74
73
73
72
70
69
69
67
67
66
66
65
65
65
62
61
60
59
58
58
58
54
50
50
50
49
49
47
47
47
45
44
43
42
41
40
40
36
35
35
35
34
33
33
32
31
30
30
29
28
28
27
27
25
25
